Ipopt 3.14.13: outlev = 0
expect_infeasible_problem = yes
bound_push = 0.01
bound_frac = 0.01
nlp_scaling_method = gradient-based


******************************************************************************
This program contains Ipopt, a library for large-scale nonlinear optimization.
 Ipopt is released as open source code under the Eclipse Public License (EPL).
         For more information visit https://github.com/coin-or/Ipopt
******************************************************************************

 
Ipopt 3.14.13: Optimal Solution Found

suffix ipopt_zU_out OUT;
suffix ipopt_zL_out OUT;
total_cost: 9381317.681144357 

*******************************************************************************
Gurobi 12.0.1: Set parameter LogToConsole to value 1
  tech:outlev = 1
Set parameter Presolve to value 1
  pre:solve = 1
Set parameter TimeLimit to value 3600
  lim:time = 3600
  alg:iisfind = 1
Set parameter NumericFocus to value 1
  alg:numericfocus = 1
  cvt:socp = 2
Set parameter Method to value 3
  alg:method = 3
Set parameter NodeMethod to value 1
  mip:nodemethod = 1
Set parameter ConcurrentMethod to value 3
  alg:concurrentmethod = 3
Set parameter NonConvex to value 2
  qp:nonconvex = 2
Set parameter VarBranch to value 0
  mip:varbranch = 0
Set parameter OBBT to value 1
  mip:obbt = 1
  alg:start = 1
  alg:basis = 1
Set parameter InfUnbdInfo to value 1
Gurobi Optimizer version 12.0.1 build v12.0.1rc0 (linux64 - "Debian GNU/Linux 12 (bookworm)")

CPU model: INTEL(R) XEON(R) GOLD 6530, instruction set [SSE2|AVX|AVX2|AVX512]
Thread count: 32 physical cores, 64 logical processors, using up to 32 threads

Non-default parameters:
TimeLimit  3600
Method  3
ConcurrentMethod  3
NodeMethod  1
OBBT  1
VarBranch  0
InfUnbdInfo  1
NonConvex  2
NumericFocus  1
Presolve  1

Optimize a model with 534 rows, 4702 columns and 3586 nonzeros
Model fingerprint: 0x7d5f6bca
Model has 179 simple general constraints
  179 ABS
Model has 179 general nonlinear constraints (15036 nonlinear terms)
Variable types: 4702 continuous, 0 integer (0 binary)
Coefficient statistics:
  Matrix range     [8e-11, 2e+01]
  Objective range  [1e+02, 3e+03]
  Bounds range     [2e-06, 6e+05]
  RHS range        [2e-03, 1e+03]

User MIP start did not produce a new incumbent solution

Presolve model has 179 nlconstr
Added 6265 variables to disaggregate expressions.
Presolve added 503 rows and 0 columns
Presolve removed 0 rows and 1061 columns
Presolve time: 0.16s
Presolved: 17684 rows, 9907 columns, 46771 nonzeros
Presolved model has 358 SOS constraint(s)
Presolved model has 2685 bilinear constraint(s)
Presolved model has 537 nonlinear constraint(s)

Solving non-convex MINLP

Variable types: 9549 continuous, 358 integer (358 binary)

Concurrent LP optimizer: primal and dual simplex (primal and dual model)
Showing primal log only...

Root relaxation presolved: 14409 rows, 6206 columns, 39975 nonzeros


Root simplex log...

Iteration    Objective       Primal Inf.    Dual Inf.      Time
       0   -1.8756820e+08   2.971236e+08   3.797751e+13      5s

Solved with primal simplex

Root relaxation: objective 1.622384e+06, 5785 iterations, 0.68 seconds (0.09 work units)

    Nodes    |    Current Node    |     Objective Bounds      |     Work
 Expl Unexpl |  Obj  Depth IntInf | Incumbent    BestBd   Gap | It/Node Time

     0     0 1622384.35    0 1131          - 1622384.35      -     -    5s
     0     0 1622384.35    0 1144          - 1622384.35      -     -    6s
     0     0 1622384.35    0 1308          - 1622384.35      -     -    7s
     0     0 1622384.35    0 1226          - 1622384.35      -     -    7s
     0     0 1622384.35    0 1240          - 1622384.35      -     -    7s
     0     0 1622384.35    0 1257          - 1622384.35      -     -    8s
     0     0 1622384.35    0  912          - 1622384.35      -     -   11s
     0     0 1622384.35    0 1007          - 1622384.35      -     -   12s
     0     0 1622384.35    0  801          - 1622384.35      -     -   20s
     0     0 1622384.35    0  805          - 1622384.35      -     -   20s
     0     0 1622384.35    0 1031          - 1622384.35      -     -   21s
     0     0 1622384.35    0  873          - 1622384.35      -     -   24s
     0     0 1622384.35    0 1147          - 1622384.35      -     -   26s
     0     0 1622384.35    0  914          - 1622384.35      -     -   30s
     0     0 1622384.35    0 1341          - 1622384.35      -     -   31s
     0     0 1622384.35    0  953          - 1622384.35      -     -   34s
     0     0 1622384.35    0  890          - 1622384.35      -     -   36s
     0     2 1622384.35    0  890          - 1622384.35      -     -   50s
     3     8 1622384.35    2 1193          - 1622384.35      -  3834   55s
    15    30 1622384.35    4 1428          - 1622384.35      -  4483   66s
    31    60 1622384.35    5 1425          - 1622384.35      -  5212   73s
    61    92 1622384.35    6 1421          - 1622384.35      -  5131   80s
    93   155 1622384.35    7 1410          - 1622384.35      -  4955   97s
   156   260 1622384.35    8 1401          - 1622384.35      -  4654  114s
   267   347 1622384.35   10 1403          - 1622384.35      -  4218  126s
   369   505 1622384.35   13 1375          - 1622384.35      -  4071  145s
   536   840 infeasible   19               - 1622384.35      -  3896  171s
